; QF_LIA benchmark: system_05
(set-logic QF_LIA)
(declare-fun v0 () Int)
(declare-fun v1 () Int)
(declare-fun v2 () Int)
(declare-fun v3 () Int)
(assert (>= (+ (* 5 v0) (* -2 v1) (* 1 v2) (* -4 v3)) 19))
(assert (>= (+ (* 5 v0) (* -3 v1) (* -1 v2) (* -3 v3)) -41))
(assert (<= (+ (* -3 v0) (* -1 v1) (* 4 v2) (* 4 v3)) -14))
(assert (= (+ (* -4 v0) (* 2 v1) (* -1 v2) (* 1 v3)) -16))
(assert (>= (+ (* 3 v0) (* 2 v1) (* 2 v2) (* -4 v3)) 26))
(assert (>= (+ (* 1 v0) (* 4 v2) (* -1 v3)) -47))
(assert (= (+ (* -2 v0) (* 5 v1) (* 4 v2) (* 4 v3)) -48))
(assert (= (+ (* -1 v0) (* 4 v1) (* -5 v2) (* -3 v3)) 10))
(check-sat)
(exit)
